(set-logic ALL)
(set-option :produce-models true)
(declare-sort BoundSet 0)
(declare-sort UnboundSet 0)
(set-option :finite-model-find true)
(declare-fun IsBearded (BoundSet) Bool)
(declare-fun IsNear (BoundSet BoundSet) Bool)
(declare-fun IsSitting (BoundSet) Bool)
(assert (not (=> (exists ((a BoundSet)) (exists ((b BoundSet)) (and (IsBearded a) (IsNear a b)))) (exists ((c BoundSet)) (exists ((d BoundSet)) (and (IsSitting c) (IsNear c d)))))))
(check-sat)
(get-model)